Normalized Data/p02_17_normalized_split0.vrp
NAME:p02_17_NORMALIZED_split
BEST_KNOWN: 0
COMMENT: 0
DIMENSION: 291
CAPACITY: 100
EDGE_WEIGHT_FORMAT: FUNCTION
EDGE_WEIGHT_TYPE: EXACT_2D
NODE_COORD_SECTION
1 0.00000 0.00000
2 50 -38
3 50 -38
4 50 -38
5 29 2
6 29 2
7 29 2
8 29 2
9 29 2
10 29 2
11 29 2
12 -17 -22
13 -17 -22
14 -17 -22
15 -17 -22
16 27 40
17 25 37
18 25 37
19 25 37
20 -3 28
21 -3 28
22 -3 28
23 -3 28
24 -4 8
25 -4 8
26 -4 8
27 -4 8
28 -4 8
29 -35 24
30 -35 24
31 -35 24
32 -35 24
33 38 3
34 38 3
35 -6 -8
36 -6 -8
37 -6 -8
38 -6 -8
39 -6 -8
40 -6 -30
41 -6 -30
42 -6 -30
43 7 -12
44 7 -12
45 7 -12
46 7 -12
47 22 -16
48 -2 16
49 -2 16
50 -2 16
51 -2 16
52 -2 16
53 -2 16
54 42 25
55 42 25
56 42 25
57 42 25
58 42 25
59 -21 -29
60 -21 -29
61 -21 -29
62 -21 -29
63 -21 -29
64 -21 -29
65 50 -16
66 50 -16
67 50 -16
68 2 37
69 2 37
70 2 37
71 2 37
72 2 37
73 2 30
74 2 30
75 2 30
76 2 30
77 2 30
78 42 -42
79 42 -42
80 42 -42
81 42 -42
82 34 32
83 34 32
84 -50 20
85 -50 20
86 -50 20
87 -50 20
88 -50 20
89 -29 23
90 -29 23
91 38 -9
92 38 -9
93 38 -9
94 38 -9
95 38 -9
96 38 -9
97 38 -9
98 -33 -36
99 -33 -36
100 -33 -36
101 -6 26
102 -6 26
103 -6 26
104 -6 26
105 -18 -42
106 -18 -42
107 -18 -42
108 -18 -42
109 -18 -42
110 -18 -42
111 23 -37
112 23 -37
113 23 -37
114 23 -37
115 23 -37
116 -42 6
117 -42 6
118 -42 6
119 31 21
120 31 21
121 31 21
122 31 21
123 31 21
124 36 18
125 36 18
126 -23 31
127 -23 31
128 -23 31
129 -24 21
130 -24 21
131 -24 21
132 -24 21
133 -24 21
134 14 29
135 14 29
136 14 29
137 -16 -49
138 -16 -49
139 -16 -49
140 33 24
141 33 24
142 33 24
143 24 27
144 24 27
145 24 27
146 24 27
147 45 -21
148 45 -21
149 45 -21
150 19 31
151 19 31
152 19 31
153 -12 24
154 -12 24
155 -12 24
156 -50 21
157 -50 21
158 20 -28
159 20 -28
160 20 -28
161 20 -28
162 8 23
163 8 23
164 8 23
165 8 23
166 -23 -31
167 -23 -31
168 -23 -31
169 -23 -31
170 -23 -31
171 -17 25
172 -17 25
173 -17 25
174 -17 25
175 -29 15
176 -29 15
177 -29 15
178 -29 15
179 5 38
180 5 38
181 5 38
182 5 38
183 5 38
184 5 38
185 12 -1
186 12 -1
187 12 -1
188 12 -1
189 12 -1
190 -1 14
191 -1 14
192 -1 14
193 -1 14
194 47 -1
195 47 -1
196 47 -1
197 47 -1
198 47 -1
199 47 -1
200 43 -13
201 43 -13
202 43 -13
203 26 -3
204 26 -3
205 25 13
206 25 13
207 25 13
208 -12 -22
209 -12 -22
210 -12 -22
211 -12 -22
212 -12 -22
213 19 16
214 19 16
215 19 16
216 19 16
217 19 16
218 19 16
219 19 16
220 34 -36
221 34 -36
222 34 -36
223 -3 -12
224 -3 -12
225 -3 -12
226 -3 -12
227 -3 -12
228 23 -22
229 23 -22
230 23 -22
231 23 -22
232 23 -22
233 23 -22
234 -37 -11
235 -37 -11
236 -37 -11
237 -37 -11
238 -15 16
239 -15 16
240 -15 16
241 -15 16
242 -15 16
243 -43 -18
244 -43 -18
245 25 -50
246 25 -50
247 25 -50
248 20 38
249 20 38
250 0 -41
251 0 -41
252 0 -41
253 39 1
254 39 1
255 39 1
256 39 1
257 -13 -12
258 -13 -12
259 -13 -12
260 37 3
261 37 3
262 17 33
263 17 33
264 17 33
265 17 33
266 17 33
267 17 -48
268 -8 -7
269 -8 -7
270 -8 -7
271 -8 -7
272 -24 -42
273 -24 -42
274 -24 -42
275 -24 -42
276 25 29
277 25 29
278 25 29
279 25 29
280 -28 -2
281 -28 -2
282 -28 -2
283 -28 -2
284 46 0
285 46 0
286 41 22
287 41 22
288 41 22
289 41 22
290 41 22
291 41 22
DEMAND_SECTION
1 0
2 20
3 20
4 10
5 20
6 20
7 5
8 1
9 1
10 1
11 1
12 20
13 5
14 1
15 1
16 20
17 20
18 20
19 5
20 20
21 20
22 1
23 1
24 20
25 5
26 1
27 1
28 1
29 10
30 1
31 1
32 1
33 20
34 20
35 20
36 20
37 1
38 1
39 1
40 20
41 10
42 5
43 20
44 10
45 5
46 1
47 20
48 20
49 20
50 1
51 1
52 1
53 1
54 20
55 20
56 1
57 1
58 1
59 20
60 20
61 1
62 1
63 1
64 1
65 20
66 1
67 1
68 20
69 20
70 1
71 1
72 1
73 20
74 20
75 5
76 1
77 1
78 20
79 20
80 5
81 1
82 20
83 10
84 20
85 10
86 1
87 1
88 1
89 20
90 10
91 20
92 10
93 5
94 1
95 1
96 1
97 1
98 10
99 5
100 1
101 20
102 10
103 1
104 1
105 20
106 20
107 1
108 1
109 1
110 1
111 20
112 5
113 1
114 1
115 1
116 20
117 20
118 5
119 20
120 1
121 1
122 1
123 1
124 20
125 10
126 20
127 20
128 5
129 20
130 20
131 1
132 1
133 1
134 20
135 10
136 5
137 20
138 10
139 1
140 20
141 20
142 1
143 20
144 1
145 1
146 1
147 10
148 1
149 1
150 20
151 1
152 1
153 20
154 20
155 1
156 10
157 5
158 20
159 5
160 1
161 1
162 20
163 20
164 1
165 1
166 20
167 10
168 5
169 1
170 1
171 20
172 10
173 5
174 1
175 10
176 5
177 1
178 1
179 20
180 5
181 1
182 1
183 1
184 1
185 10
186 1
187 1
188 1
189 1
190 20
191 20
192 5
193 1
194 20
195 10
196 1
197 1
198 1
199 1
200 20
201 1
202 1
203 20
204 1
205 20
206 20
207 5
208 20
209 10
210 5
211 1
212 1
213 20
214 10
215 5
216 1
217 1
218 1
219 1
220 20
221 10
222 5
223 10
224 1
225 1
226 1
227 1
228 20
229 10
230 5
231 1
232 1
233 1
234 20
235 20
236 1
237 1
238 20
239 10
240 5
241 1
242 1
243 20
244 10
245 20
246 10
247 5
248 20
249 5
250 20
251 10
252 5
253 20
254 5
255 1
256 1
257 10
258 1
259 1
260 20
261 5
262 20
263 5
264 1
265 1
266 1
267 20
268 20
269 5
270 1
271 1
272 20
273 10
274 1
275 1
276 20
277 20
278 1
279 1
280 20
281 5
282 1
283 1
284 20
285 1
286 20
287 20
288 1
289 1
290 1
291 1
DEPOT_SECTION
1
-1
EOF