Normalized Data/p02_17_normalized_split0.sol
290 -2 1 3 79 80 78 77 -7 8 10 9 6 4 5 205 206 204 -13 14 12 11 59 58 60 209 207 211 -19 20 73 162 161 -22 21 103 100 102 101 152 154 153 237 -24 25 23 26 27 -35 38 37 34 36 268 267 269 270 -39 40 41 251 249 250 43 42 -45 44 159 160 158 157 112 111 114 113 110 227 230 231 228 232 229 -46 146 147 148 64 65 66 201 199 200 93 90 96 -52 50 49 51 47 48 189 192 191 190 -62 63 61 166 169 167 168 165 274 272 273 271 98 97 99 256 257 258 -72 74 75 76 69 67 68 71 70 178 180 179 182 183 181 -95 92 94 91 197 195 193 196 194 198 284 283 253 255 254 252 -115 117 116 83 87 85 84 86 155 156 175 -119 118 121 120 122 140 141 139 123 124 -129 131 128 132 130 88 89 31 29 28 30 174 176 177 -145 144 143 142 278 277 276 275 82 81 214 -150 151 16 17 18 15 247 248 263 265 262 264 -163 164 135 134 133 261 149 212 215 216 218 -170 172 173 171 126 125 127 239 241 240 238 -185 184 187 186 188 202 203 33 32 259 260 -210 208 107 104 105 109 108 106 137 136 138 226 224 225 222 223 -217 213 57 53 54 56 55 286 288 290 289 285 287 -220 221 219 246 244 245 266 -243 242 236 235 233 234 280 279 282 281 0 





OBJ=
2200.432
BEST_KNOWN=
0.000